20 64 
1 5 1
2 5 1
2 6 1
2 7 1
2 8 1
2 12 1
2 19 1
3 5 1
3 6 1
3 7 1
3 8 1
3 9 1
3 10 1
3 12 1
4 5 1
4 6 1
4 7 1
4 15 1
4 17 1
4 20 1
5 6 1
5 8 1
5 9 1
5 14 1
5 17 1
5 18 1
5 19 1
6 7 1
6 8 1
6 10 1
6 11 1
6 12 1
6 13 1
6 14 1
6 16 1
7 9 1
7 10 1
7 11 1
7 13 1
7 14 1
7 15 1
8 9 1
8 11 1
8 15 1
8 16 1
8 17 1
8 20 1
9 10 1
9 11 1
9 13 1
9 16 1
9 17 1
9 18 1
9 19 1
10 14 1
11 12 1
11 13 1
12 15 1
12 19 1
12 20 1
13 16 1
13 18 1
14 18 1
15 20 1
